(set-info :smt-lib-version 2.6)
(set-logic UF)
(set-info :source |Benchmarks from the paper: "Extending Sledgehammer with SMT Solvers" by Jasmin Blanchette, Sascha Bohme, and Lawrence C. Paulson, CADE 2011.  Translated to SMT2 by Andrew Reynolds and Morgan Deters.|)
(set-info :category "industrial")
(set-info :status unknown)
(declare-sort S1 0)
(declare-sort S2 0)
(declare-sort S3 0)
(declare-sort S4 0)
(declare-sort S5 0)
(declare-sort S6 0)
(declare-sort S7 0)
(declare-sort S8 0)
(declare-sort S9 0)
(declare-sort S10 0)
(declare-sort S11 0)
(declare-sort S12 0)
(declare-sort S13 0)
(declare-sort S14 0)
(declare-sort S15 0)
(declare-sort S16 0)
(declare-sort S17 0)
(declare-sort S18 0)
(declare-sort S19 0)
(declare-sort S20 0)
(declare-sort S21 0)
(declare-sort S22 0)
(declare-sort S23 0)
(declare-sort S24 0)
(declare-sort S25 0)
(declare-sort S26 0)
(declare-sort S27 0)
(declare-sort S28 0)
(declare-sort S29 0)
(declare-sort S30 0)
(declare-sort S31 0)
(declare-sort S32 0)
(declare-sort S33 0)
(declare-sort S34 0)
(declare-sort S35 0)
(declare-sort S36 0)
(declare-sort S37 0)
(declare-sort S38 0)
(declare-sort S39 0)
(declare-fun f1 () S1)
(declare-fun f2 () S1)
(declare-fun f3 (S2 S3) S1)
(declare-fun f4 (S4 S5) S2)
(declare-fun f5 (S6 S7) S4)
(declare-fun f6 (S8 S7) S6)
(declare-fun f7 () S8)
(declare-fun f8 () S7)
(declare-fun f9 () S7)
(declare-fun f10 (S9 S5) S5)
(declare-fun f11 (S10 S11) S9)
(declare-fun f12 () S10)
(declare-fun f13 () S11)
(declare-fun f14 (S12 S5) S9)
(declare-fun f15 () S12)
(declare-fun f16 (S13 S11) S5)
(declare-fun f17 () S13)
(declare-fun f18 () S11)
(declare-fun f19 () S3)
(declare-fun f20 (S14 S15) S1)
(declare-fun f21 (S16 S17) S14)
(declare-fun f22 () S16)
(declare-fun f23 (S18 S5) S17)
(declare-fun f24 (S19 S7) S18)
(declare-fun f25 (S20 S7) S19)
(declare-fun f26 () S20)
(declare-fun f27 (S21 S3) S15)
(declare-fun f28 () S21)
(declare-fun f29 (S22 S23) S1)
(declare-fun f30 (S24 S5) S22)
(declare-fun f31 () S24)
(declare-fun f32 () S13)
(declare-fun f33 (S25 S23) S23)
(declare-fun f34 () S25)
(declare-fun f35 (S26 S3) S23)
(declare-fun f36 (S27 S7) S26)
(declare-fun f37 () S27)
(declare-fun f38 () S7)
(declare-fun f39 (S28 S29) S1)
(declare-fun f40 (S30 S7) S28)
(declare-fun f41 () S30)
(declare-fun f42 () S29)
(declare-fun f43 (S31 S2) S1)
(declare-fun f44 (S32 S3) S31)
(declare-fun f45 () S32)
(declare-fun f46 () S2)
(declare-fun f47 (S33 S7) S11)
(declare-fun f48 () S33)
(declare-fun f49 () S25)
(declare-fun f50 () S19)
(declare-fun f51 () S19)
(declare-fun f52 (S23 S5) S1)
(declare-fun f53 () S25)
(declare-fun f54 (S34 S3) S3)
(declare-fun f55 (S35 S17) S34)
(declare-fun f56 () S35)
(declare-fun f57 (S37 S36) S1)
(declare-fun f58 (S38 S11) S37)
(declare-fun f59 () S38)
(declare-fun f60 (S36 S11) S1)
(declare-fun f61 (S29 S7) S1)
(declare-fun f62 (S15 S17) S1)
(declare-fun f63 (S39 S7) S5)
(declare-fun f64 () S39)
(declare-fun f65 () S7)
(declare-fun f66 () S36)
(declare-fun f67 () S2)
(declare-fun f68 () S26)
(assert (not (= f1 f2)))
(assert (let ((?v_0 (f16 f17 f18))) (not (= (f3 (f4 (f5 (f6 f7 f8) f9) (f10 (f11 f12 f13) (f10 (f14 f15 ?v_0) ?v_0))) f19) f1))))
(assert (let ((?v_0 (f16 f17 f18))) (= (f20 (f21 f22 (f23 (f24 (f25 f26 f8) f9) (f10 (f11 f12 f13) (f10 (f14 f15 ?v_0) ?v_0)))) (f27 f28 f19)) f1)))
(assert (not (= (f29 (f30 f31 (f16 f32 f13)) (f33 f34 (f35 (f36 f37 f38) f19))) f1)))
(assert (not (= (f39 (f40 f41 f8) f42) f1)))
(assert (not (= (f39 (f40 f41 f9) f42) f1)))
(assert (= (f43 (f44 f45 f19) f46) f1))
(assert (forall ((?v0 S7) (?v1 S7) (?v2 S11) (?v3 S11) (?v4 S3)) (let ((?v_0 (f10 (f11 f12 ?v2) (f16 f17 ?v3)))) (=> (= (f20 (f21 f22 (f23 (f24 (f25 f26 ?v0) ?v1) ?v_0)) (f27 f28 ?v4)) f1) (=> (not (= (f29 (f30 f31 (f16 f32 ?v2)) (f33 f34 (f35 (f36 f37 f38) ?v4))) f1)) (=> (not (= (f39 (f40 f41 ?v1) f42) f1)) (=> (not (= (f39 (f40 f41 ?v0) f42) f1)) (=> (= (f43 (f44 f45 ?v4) f46) f1) (= (f3 (f4 (f5 (f6 f7 ?v0) ?v1) ?v_0) ?v4) f1)))))))))
(assert (= (f39 (f40 f41 f38) f42) f1))
(assert (forall ((?v0 S7) (?v1 S7) (?v2 S5) (?v3 S3)) (=> (= (f20 (f21 f22 (f23 (f24 (f25 f26 ?v0) ?v1) ?v2)) (f27 f28 ?v3)) f1) (= (f29 (f30 f31 ?v2) (f33 f34 (f35 (f36 f37 f38) ?v3))) f1))))
(assert (forall ((?v0 S5) (?v1 S5) (?v2 S23)) (let ((?v_0 (f33 f34 ?v2))) (=> (= (f29 (f30 f31 (f10 (f14 f15 ?v0) ?v1)) ?v_0) f1) (=> (=> (= (f29 (f30 f31 ?v0) ?v_0) f1) (=> (= (f29 (f30 f31 ?v1) ?v_0) f1) false)) false)))))
(assert (forall ((?v0 S7) (?v1 S7) (?v2 S5) (?v3 S3)) (=> (= (f20 (f21 f22 (f23 (f24 (f25 f26 ?v0) ?v1) ?v2)) (f27 f28 ?v3)) f1) (= (f29 (f30 f31 ?v2) (f35 (f36 f37 f38) ?v3)) f1))))
(assert (forall ((?v0 S7) (?v1 S7) (?v2 S5) (?v3 S3)) (=> (= (f20 (f21 f22 (f23 (f24 (f25 f26 ?v0) ?v1) ?v2)) (f27 f28 ?v3)) f1) (= (f29 (f30 f31 ?v2) (f35 (f36 f37 ?v0) ?v3)) f1))))
(assert (forall ((?v0 S5) (?v1 S3) (?v2 S1)) (let ((?v_0 (=> (not (= (f29 (f30 f31 ?v0) (f33 f34 (f35 (f36 f37 f38) ?v1))) f1)) (= ?v2 f1)))) (=> ?v_0 ?v_0))))
(assert (forall ((?v0 S5) (?v1 S23)) (let ((?v_0 (f30 f31 ?v0))) (=> (= (f29 ?v_0 ?v1) f1) (= (f29 ?v_0 (f33 f34 ?v1)) f1)))))
(assert (forall ((?v0 S11) (?v1 S11) (?v2 S5)) (not (= (f16 f17 ?v0) (f10 (f11 f12 ?v1) ?v2)))))
(assert (forall ((?v0 S11) (?v1 S5) (?v2 S11)) (not (= (f10 (f11 f12 ?v0) ?v1) (f16 f17 ?v2)))))
(assert (forall ((?v0 S11) (?v1 S11)) (not (= (f16 f32 ?v0) (f16 f17 ?v1)))))
(assert (forall ((?v0 S11) (?v1 S11)) (not (= (f16 f17 ?v0) (f16 f32 ?v1)))))
(assert (forall ((?v0 S11) (?v1 S5) (?v2 S5)) (not (= (f16 f17 ?v0) (f10 (f14 f15 ?v1) ?v2)))))
(assert (forall ((?v0 S5) (?v1 S23)) (let ((?v_0 (f30 f31 ?v0)) (?v_1 (f33 f34 ?v1))) (=> (= (f29 ?v_0 (f33 f34 ?v_1)) f1) (= (f29 ?v_0 ?v_1) f1)))))
(assert (forall ((?v0 S23)) (let ((?v_0 (f33 f34 ?v0))) (= (f33 f34 ?v_0) ?v_0))))
(assert (forall ((?v0 S5) (?v1 S5) (?v2 S5) (?v3 S5)) (= (= (f10 (f14 f15 ?v0) ?v1) (f10 (f14 f15 ?v2) ?v3)) (and (= ?v0 ?v2) (= ?v1 ?v3)))))
(assert (forall ((?v0 S11) (?v1 S11)) (= (= (f16 f32 ?v0) (f16 f32 ?v1)) (= ?v0 ?v1))))
(assert (forall ((?v0 S11) (?v1 S5) (?v2 S11) (?v3 S5)) (= (= (f10 (f11 f12 ?v0) ?v1) (f10 (f11 f12 ?v2) ?v3)) (and (= ?v0 ?v2) (= ?v1 ?v3)))))
(assert (forall ((?v0 S11) (?v1 S11)) (= (= (f16 f17 ?v0) (f16 f17 ?v1)) (= ?v0 ?v1))))
(assert (forall ((?v0 S7) (?v1 S7) (?v2 S5) (?v3 S7) (?v4 S7) (?v5 S5)) (= (= (f23 (f24 (f25 f26 ?v0) ?v1) ?v2) (f23 (f24 (f25 f26 ?v3) ?v4) ?v5)) (and (= ?v0 ?v3) (and (= ?v1 ?v4) (= ?v2 ?v5))))))
(assert (forall ((?v0 S5) (?v1 S5) (?v2 S23)) (let ((?v_0 (f33 f34 ?v2))) (=> (= (f29 (f30 f31 (f10 (f14 f15 ?v0) ?v1)) ?v_0) f1) (= (f29 (f30 f31 ?v1) ?v_0) f1)))))
(assert (forall ((?v0 S5) (?v1 S5) (?v2 S23)) (let ((?v_0 (f33 f34 ?v2))) (=> (= (f29 (f30 f31 (f10 (f14 f15 ?v0) ?v1)) ?v_0) f1) (= (f29 (f30 f31 ?v0) ?v_0) f1)))))
(assert (forall ((?v0 S5) (?v1 S5) (?v2 S11)) (not (= (f10 (f14 f15 ?v0) ?v1) (f16 f32 ?v2)))))
(assert (forall ((?v0 S11) (?v1 S5) (?v2 S5)) (not (= (f16 f32 ?v0) (f10 (f14 f15 ?v1) ?v2)))))
(assert (forall ((?v0 S5) (?v1 S5) (?v2 S11) (?v3 S5)) (not (= (f10 (f14 f15 ?v0) ?v1) (f10 (f11 f12 ?v2) ?v3)))))
(assert (forall ((?v0 S11) (?v1 S5) (?v2 S5) (?v3 S5)) (not (= (f10 (f11 f12 ?v0) ?v1) (f10 (f14 f15 ?v2) ?v3)))))
(assert (forall ((?v0 S11) (?v1 S5) (?v2 S11)) (not (= (f10 (f11 f12 ?v0) ?v1) (f16 f32 ?v2)))))
(assert (forall ((?v0 S11) (?v1 S11) (?v2 S5)) (not (= (f16 f32 ?v0) (f10 (f11 f12 ?v1) ?v2)))))
(assert (forall ((?v0 S5) (?v1 S5) (?v2 S11)) (not (= (f10 (f14 f15 ?v0) ?v1) (f16 f17 ?v2)))))
(assert (forall ((?v0 S3) (?v1 S7)) (=> (= (f43 (f44 f45 ?v0) f46) f1) (= (= (f29 (f30 f31 (f16 f32 (f47 f48 ?v1))) (f33 f34 (f35 (f36 f37 f38) ?v0))) f1) (= (f39 (f40 f41 ?v1) f42) f1)))))
(assert (forall ((?v0 S7) (?v1 S7) (?v2 S11) (?v3 S5) (?v4 S5) (?v5 S5) (?v6 S5) (?v7 S3)) (=> (= (f20 (f21 f22 (f23 (f24 (f25 f26 ?v0) ?v1) (f10 (f11 f12 ?v2) (f10 (f14 f15 ?v3) (f10 (f14 f15 ?v4) (f10 (f14 f15 ?v5) ?v6)))))) (f27 f28 ?v7)) f1) (= (f29 (f30 f31 ?v6) (f33 f49 (f35 (f36 f37 f38) ?v7))) f1))))
(assert (forall ((?v0 S23)) (=> (forall ((?v1 S5) (?v2 S5)) (not (= (f29 (f30 f31 (f10 (f14 f15 ?v1) ?v2)) ?v0) f1))) (=> (forall ((?v1 S5) (?v2 S11)) (not (= (f29 (f30 f31 (f10 (f11 f12 ?v2) ?v1)) ?v0) f1))) (= (f33 f34 ?v0) ?v0)))))
(assert (forall ((?v0 S7) (?v1 S5) (?v2 S3)) (=> (= (f20 (f21 f22 (f23 (f24 f50 ?v0) ?v1)) (f27 f28 ?v2)) f1) (=> (= (f39 (f40 f41 ?v0) f42) f1) (= (f29 (f30 f31 ?v1) (f35 (f36 f37 f38) ?v2)) f1)))))
(assert (forall ((?v0 S7) (?v1 S5) (?v2 S3)) (=> (not (= ?v0 f38)) (=> (= (f20 (f21 f22 (f23 (f24 f51 ?v0) ?v1)) (f27 f28 ?v2)) f1) (= (f29 (f30 f31 ?v1) (f35 (f36 f37 ?v0) ?v2)) f1)))))
(assert (forall ((?v0 S23) (?v1 S5) (?v2 S11)) (let ((?v_0 (f33 f53 ?v0))) (=> (= (f52 ?v_0 ?v1) f1) (=> (= (f52 ?v0 (f16 f32 ?v2)) f1) (= (f52 ?v_0 (f10 (f11 f12 ?v2) ?v1)) f1))))))
(assert (forall ((?v0 S5) (?v1 S7) (?v2 S7) (?v3 S5) (?v4 S3)) (let ((?v_1 (f36 f37 f38)) (?v_0 (f30 f31 ?v0))) (=> (not (= (f29 ?v_0 (f33 f34 (f35 ?v_1 (f54 (f55 f56 (f23 (f24 (f25 f26 ?v1) ?v2) ?v3)) ?v4)))) f1)) (not (= (f29 ?v_0 (f33 f34 (f35 ?v_1 ?v4))) f1))))))
(assert (forall ((?v0 S7) (?v1 S7) (?v2 S5) (?v3 S3)) (=> (= (f20 (f21 f22 (f23 (f24 (f25 f26 ?v0) ?v1) ?v2)) (f27 f28 ?v3)) f1) (=> (=> (= (f29 (f30 f31 ?v2) (f33 f49 (f35 (f36 f37 f38) ?v3))) f1) false) false))))
(assert (forall ((?v0 S5) (?v1 S23)) (let ((?v_0 (f30 f31 ?v0))) (=> (= (f29 ?v_0 ?v1) f1) (= (f29 ?v_0 (f33 f49 ?v1)) f1)))))
(assert (forall ((?v0 S23) (?v1 S5)) (=> (= (f52 ?v0 ?v1) f1) (= (f52 (f33 f53 ?v0) ?v1) f1))))
(assert (forall ((?v0 S5) (?v1 S5) (?v2 S23)) (let ((?v_0 (f33 f49 ?v2))) (=> (= (f29 (f30 f31 (f10 (f14 f15 ?v0) ?v1)) ?v_0) f1) (=> (=> (= (f29 (f30 f31 ?v0) ?v_0) f1) (=> (= (f29 (f30 f31 ?v1) ?v_0) f1) false)) false)))))
(assert (forall ((?v0 S23) (?v1 S5) (?v2 S5)) (let ((?v_0 (f33 f53 ?v0))) (=> (= (f52 ?v_0 ?v1) f1) (=> (= (f52 ?v_0 ?v2) f1) (= (f52 ?v_0 (f10 (f14 f15 ?v1) ?v2)) f1))))))
(assert (forall ((?v0 S7) (?v1 S5) (?v2 S7) (?v3 S5)) (not (= (f23 (f24 f51 ?v0) ?v1) (f23 (f24 f50 ?v2) ?v3)))))
(assert (forall ((?v0 S7) (?v1 S5) (?v2 S7) (?v3 S5)) (not (= (f23 (f24 f50 ?v0) ?v1) (f23 (f24 f51 ?v2) ?v3)))))
(assert (forall ((?v0 S23)) (let ((?v_0 (f33 f49 ?v0))) (= (f33 f49 ?v_0) ?v_0))))
(assert (forall ((?v0 S7) (?v1 S5) (?v2 S7) (?v3 S5)) (= (= (f23 (f24 f51 ?v0) ?v1) (f23 (f24 f51 ?v2) ?v3)) (and (= ?v0 ?v2) (= ?v1 ?v3)))))
(assert (forall ((?v0 S7) (?v1 S5) (?v2 S7) (?v3 S5)) (= (= (f23 (f24 f50 ?v0) ?v1) (f23 (f24 f50 ?v2) ?v3)) (and (= ?v0 ?v2) (= ?v1 ?v3)))))
(assert (forall ((?v0 S5) (?v1 S23)) (let ((?v_0 (f30 f31 ?v0)) (?v_1 (f33 f49 ?v1))) (=> (= (f29 ?v_0 (f33 f49 ?v_1)) f1) (= (f29 ?v_0 ?v_1) f1)))))
(assert (forall ((?v0 S23)) (let ((?v_0 (f33 f49 ?v0))) (= (f33 f34 ?v_0) ?v_0))))
(assert (forall ((?v0 S23)) (= (f33 f49 (f33 f34 ?v0)) (f33 f49 ?v0))))
(assert (forall ((?v0 S5) (?v1 S23)) (let ((?v_0 (f30 f31 ?v0))) (let ((?v_1 (= (f29 ?v_0 (f33 f34 ?v1)) f1))) (= (and ?v_1 (= (f29 ?v_0 (f33 f49 ?v1)) f1)) ?v_1)))))
(assert (forall ((?v0 S5) (?v1 S23)) (let ((?v_0 (f30 f31 ?v0))) (let ((?v_1 (= (f29 ?v_0 (f33 f49 ?v1)) f1))) (= (or (= (f29 ?v_0 (f33 f34 ?v1)) f1) ?v_1) ?v_1)))))
(assert (forall ((?v0 S5) (?v1 S23)) (let ((?v_0 (f30 f31 ?v0))) (=> (not (= (f29 ?v_0 (f33 f49 ?v1)) f1)) (not (= (f29 ?v_0 (f33 f34 ?v1)) f1))))))
(assert (forall ((?v0 S5) (?v1 S23)) (let ((?v_0 (f30 f31 ?v0))) (=> (= (f29 ?v_0 (f33 f34 ?v1)) f1) (= (f29 ?v_0 (f33 f49 ?v1)) f1)))))
(assert (forall ((?v0 S5) (?v1 S5) (?v2 S23)) (let ((?v_0 (f33 f49 ?v2))) (=> (= (f29 (f30 f31 (f10 (f14 f15 ?v0) ?v1)) ?v_0) f1) (= (f29 (f30 f31 ?v0) ?v_0) f1)))))
(assert (forall ((?v0 S5) (?v1 S5) (?v2 S23)) (let ((?v_0 (f33 f49 ?v2))) (=> (= (f29 (f30 f31 (f10 (f14 f15 ?v0) ?v1)) ?v_0) f1) (= (f29 (f30 f31 ?v1) ?v_0) f1)))))
(assert (forall ((?v0 S11) (?v1 S5) (?v2 S23)) (let ((?v_0 (f33 f49 ?v2))) (=> (= (f29 (f30 f31 (f10 (f11 f12 ?v0) ?v1)) ?v_0) f1) (= (f29 (f30 f31 ?v1) ?v_0) f1)))))
(assert (forall ((?v0 S11) (?v1 S5) (?v2 S23)) (let ((?v_0 (f33 f49 ?v2))) (=> (= (f29 (f30 f31 (f10 (f11 f12 ?v0) ?v1)) ?v_0) f1) (=> (=> (= (f29 (f30 f31 ?v1) ?v_0) f1) false) false)))))
(assert (forall ((?v0 S7) (?v1 S5) (?v2 S3)) (let ((?v_0 (f36 f37 f38))) (= (f35 ?v_0 (f54 (f55 f56 (f23 (f24 f51 ?v0) ?v1)) ?v2)) (f35 ?v_0 ?v2)))))
(assert (forall ((?v0 S7) (?v1 S5) (?v2 S7) (?v3 S7) (?v4 S5)) (not (= (f23 (f24 f50 ?v0) ?v1) (f23 (f24 (f25 f26 ?v2) ?v3) ?v4)))))
(assert (forall ((?v0 S7) (?v1 S7) (?v2 S5) (?v3 S7) (?v4 S5)) (not (= (f23 (f24 (f25 f26 ?v0) ?v1) ?v2) (f23 (f24 f50 ?v3) ?v4)))))
(assert (forall ((?v0 S5) (?v1 S7) (?v2 S5) (?v3 S3)) (let ((?v_1 (f36 f37 f38)) (?v_0 (f30 f31 ?v0))) (=> (not (= (f29 ?v_0 (f33 f34 (f35 ?v_1 (f54 (f55 f56 (f23 (f24 f50 ?v1) ?v2)) ?v3)))) f1)) (not (= (f29 ?v_0 (f33 f34 (f35 ?v_1 ?v3))) f1))))))
(assert (forall ((?v0 S5) (?v1 S7) (?v2 S5) (?v3 S3)) (let ((?v_1 (f36 f37 f38)) (?v_0 (f30 f31 ?v0))) (=> (not (= (f29 ?v_0 (f33 f34 (f35 ?v_1 (f54 (f55 f56 (f23 (f24 f51 ?v1) ?v2)) ?v3)))) f1)) (not (= (f29 ?v_0 (f33 f34 (f35 ?v_1 ?v3))) f1))))))
(assert (forall ((?v0 S7) (?v1 S5) (?v2 S7) (?v3 S7) (?v4 S5)) (not (= (f23 (f24 f51 ?v0) ?v1) (f23 (f24 (f25 f26 ?v2) ?v3) ?v4)))))
(assert (forall ((?v0 S7) (?v1 S7) (?v2 S5) (?v3 S7) (?v4 S5)) (not (= (f23 (f24 (f25 f26 ?v0) ?v1) ?v2) (f23 (f24 f51 ?v3) ?v4)))))
(assert (forall ((?v0 S3) (?v1 S7)) (=> (= (f43 (f44 f45 ?v0) f46) f1) (= (= (f29 (f30 f31 (f16 f32 (f47 f48 ?v1))) (f33 f49 (f35 (f36 f37 f38) ?v0))) f1) (= (f39 (f40 f41 ?v1) f42) f1)))))
(assert (forall ((?v0 S7) (?v1 S5) (?v2 S3)) (=> (= (f20 (f21 f22 (f23 (f24 f50 ?v0) ?v1)) (f27 f28 ?v2)) f1) (= (f29 (f30 f31 ?v1) (f35 (f36 f37 ?v0) ?v2)) f1))))
(assert (forall ((?v0 S7) (?v1 S3)) (=> (= (f39 (f40 f41 ?v0) f42) f1) (= (f29 (f30 f31 (f16 f32 (f47 f48 ?v0))) (f35 (f36 f37 f38) ?v1)) f1))))
(assert (forall ((?v0 S7) (?v1 S3)) (= (f29 (f30 f31 (f16 f32 (f47 f48 ?v0))) (f35 (f36 f37 ?v0) ?v1)) f1)))
(assert (forall ((?v0 S11) (?v1 S36)) (= (= (f57 (f58 f59 ?v0) ?v1) f1) (= (f60 ?v1 ?v0) f1))))
(assert (forall ((?v0 S3) (?v1 S2)) (= (= (f43 (f44 f45 ?v0) ?v1) f1) (= (f3 ?v1 ?v0) f1))))
(assert (forall ((?v0 S7) (?v1 S29)) (= (= (f39 (f40 f41 ?v0) ?v1) f1) (= (f61 ?v1 ?v0) f1))))
(assert (forall ((?v0 S5) (?v1 S23)) (= (= (f29 (f30 f31 ?v0) ?v1) f1) (= (f52 ?v1 ?v0) f1))))
(assert (forall ((?v0 S17) (?v1 S15)) (= (= (f20 (f21 f22 ?v0) ?v1) f1) (= (f62 ?v1 ?v0) f1))))
(assert (forall ((?v0 S7) (?v1 S5) (?v2 S3)) (let ((?v_0 (f33 f34 (f35 (f36 f37 f38) ?v2)))) (=> (= (f29 (f30 f31 (f10 (f11 f12 (f47 f48 ?v0)) ?v1)) ?v_0) f1) (=> (= (f39 (f40 f41 ?v0) f42) f1) (= (f29 (f30 f31 ?v1) ?v_0) f1))))))
(assert (forall ((?v0 S7) (?v1 S5) (?v2 S23)) (let ((?v_0 (f47 f48 ?v0)) (?v_1 (f33 f34 ?v2))) (=> (= (f29 (f30 f31 (f10 (f11 f12 ?v_0) ?v1)) ?v_1) f1) (=> (= (f29 (f30 f31 (f16 f32 ?v_0)) ?v_1) f1) (= (f29 (f30 f31 ?v1) ?v_1) f1))))))
(assert (forall ((?v0 S11) (?v1 S11) (?v2 S3) (?v3 S7) (?v4 S11) (?v5 S7) (?v6 S5)) (let ((?v_0 (f16 f17 ?v1))) (let ((?v_4 (f10 (f11 f12 ?v0) (f10 (f14 f15 ?v_0) ?v_0))) (?v_3 (f35 (f36 f37 f38) ?v2))) (let ((?v_1 (f33 f49 ?v_3)) (?v_2 (f16 f32 ?v0))) (=> (= (f29 (f30 f31 ?v_4) ?v_1) f1) (=> (= (f29 (f30 f31 (f10 (f11 f12 (f47 f48 ?v3)) (f10 (f14 f15 (f16 f17 ?v4)) (f10 (f14 f15 (f63 f64 ?v5)) (f10 (f14 f15 ?v_2) ?v6))))) ?v_1) f1) (=> (not (= (f29 (f30 f31 ?v_2) (f33 f34 ?v_3)) f1)) (=> (not (= (f39 (f40 f41 ?v3) f42) f1)) (=> (not (= (f39 (f40 f41 ?v5) f42) f1)) (=> (= (f43 (f44 f45 ?v2) f46) f1) (= (f20 (f21 f22 (f23 (f24 (f25 f26 ?v3) ?v5) ?v_4)) (f27 f28 ?v2)) f1))))))))))))
(assert (forall ((?v0 S11) (?v1 S11) (?v2 S3) (?v3 S7) (?v4 S5) (?v5 S7) (?v6 S5)) (let ((?v_3 (f10 (f11 f12 ?v0) (f16 f17 ?v1))) (?v_2 (f35 (f36 f37 f38) ?v2))) (let ((?v_0 (f33 f49 ?v_2)) (?v_1 (f16 f32 ?v0))) (=> (= (f29 (f30 f31 ?v_3) ?v_0) f1) (=> (= (f29 (f30 f31 (f10 (f11 f12 (f47 f48 ?v3)) (f10 (f14 f15 ?v4) (f10 (f14 f15 (f63 f64 ?v5)) (f10 (f14 f15 ?v_1) ?v6))))) ?v_0) f1) (=> (not (= (f29 (f30 f31 ?v_1) (f33 f34 ?v_2)) f1)) (=> (not (= (f39 (f40 f41 ?v3) f42) f1)) (=> (not (= (f39 (f40 f41 ?v5) f42) f1)) (=> (= (f43 (f44 f45 ?v2) f46) f1) (= (f3 (f4 (f5 (f6 f7 ?v5) ?v3) ?v_3) ?v2) f1)))))))))))
(assert (forall ((?v0 S11) (?v1 S11) (?v2 S3) (?v3 S7) (?v4 S5) (?v5 S7) (?v6 S5)) (let ((?v_1 (f10 (f11 f12 ?v0) (f16 f17 ?v1))) (?v_0 (f33 f49 (f35 (f36 f37 f38) ?v2)))) (=> (= (f29 (f30 f31 ?v_1) ?v_0) f1) (=> (= (f29 (f30 f31 (f10 (f11 f12 (f47 f48 ?v3)) (f10 (f14 f15 ?v4) (f10 (f14 f15 (f63 f64 ?v5)) (f10 (f14 f15 (f16 f32 ?v0)) ?v6))))) ?v_0) f1) (=> (forall ((?v7 S5)) (not (= (f20 (f21 f22 (f23 (f24 f50 f38) (f10 (f14 f15 ?v4) (f10 (f14 f15 ?v7) (f16 f32 ?v0))))) (f27 f28 ?v2)) f1))) (=> (not (= (f39 (f40 f41 ?v3) f42) f1)) (=> (not (= (f39 (f40 f41 ?v5) f42) f1)) (=> (= (f43 (f44 f45 ?v2) f46) f1) (= (f20 (f21 f22 (f23 (f24 (f25 f26 ?v5) ?v3) ?v_1)) (f27 f28 ?v2)) f1))))))))))
(assert (forall ((?v0 S11) (?v1 S11) (?v2 S3) (?v3 S7) (?v4 S7)) (let ((?v_0 (f16 f17 ?v1))) (let ((?v_2 (f10 (f11 f12 ?v0) (f10 (f14 f15 ?v_0) ?v_0))) (?v_1 (f33 f49 (f35 (f36 f37 f38) ?v2)))) (=> (= (f29 (f30 f31 ?v_2) ?v_1) f1) (=> (= (f29 (f30 f31 (f10 (f11 f12 (f47 f48 ?v3)) (f10 (f14 f15 (f16 f32 ?v0)) (f63 f64 ?v4)))) ?v_1) f1) (=> (forall ((?v5 S5) (?v6 S5)) (not (= (f20 (f21 f22 (f23 (f24 f50 f38) (f10 (f14 f15 ?v5) (f10 (f14 f15 ?v6) (f16 f32 ?v0))))) (f27 f28 ?v2)) f1))) (=> (not (= (f39 (f40 f41 ?v4) f42) f1)) (=> (not (= (f39 (f40 f41 ?v3) f42) f1)) (=> (= (f43 (f44 f45 ?v2) f46) f1) (= (f20 (f21 f22 (f23 (f24 (f25 f26 ?v4) ?v3) ?v_2)) (f27 f28 ?v2)) f1)))))))))))
(assert (forall ((?v0 S23) (?v1 S7)) (= (f52 (f33 f53 ?v0) (f63 f64 ?v1)) f1)))
(assert (forall ((?v0 S7) (?v1 S7)) (= (= (f63 f64 ?v0) (f63 f64 ?v1)) (= ?v0 ?v1))))
(assert (forall ((?v0 S5) (?v1 S5) (?v2 S7)) (not (= (f10 (f14 f15 ?v0) ?v1) (f63 f64 ?v2)))))
(assert (forall ((?v0 S7) (?v1 S5) (?v2 S5)) (not (= (f63 f64 ?v0) (f10 (f14 f15 ?v1) ?v2)))))
(assert (forall ((?v0 S7) (?v1 S11)) (not (= (f63 f64 ?v0) (f16 f32 ?v1)))))
(assert (forall ((?v0 S11) (?v1 S7)) (not (= (f16 f32 ?v0) (f63 f64 ?v1)))))
(assert (forall ((?v0 S11) (?v1 S5) (?v2 S7)) (not (= (f10 (f11 f12 ?v0) ?v1) (f63 f64 ?v2)))))
(assert (forall ((?v0 S7) (?v1 S11) (?v2 S5)) (not (= (f63 f64 ?v0) (f10 (f11 f12 ?v1) ?v2)))))
(assert (forall ((?v0 S11) (?v1 S7)) (not (= (f16 f17 ?v0) (f63 f64 ?v1)))))
(assert (forall ((?v0 S7) (?v1 S11)) (not (= (f63 f64 ?v0) (f16 f17 ?v1)))))
(assert (forall ((?v0 S7) (?v1 S7)) (= (= (f47 f48 ?v0) (f47 f48 ?v1)) (= ?v0 ?v1))))
(assert (forall ((?v0 S7) (?v1 S3) (?v2 S11) (?v3 S7) (?v4 S5) (?v5 S11)) (let ((?v_0 (f16 f32 ?v2)) (?v_3 (f35 (f36 f37 f38) ?v1))) (let ((?v_1 (f14 f15 ?v_0)) (?v_5 (f27 f28 ?v1)) (?v_2 (f16 f17 ?v5))) (let ((?v_4 (f10 (f11 f12 ?v2) (f10 (f14 f15 ?v_2) ?v_2)))) (=> (not (= (f39 (f40 f41 ?v0) f42) f1)) (=> (= (f43 (f44 f45 ?v1) f46) f1) (=> (not (= (f29 (f30 f31 ?v_0) (f33 f34 ?v_3)) f1)) (=> (= (f20 (f21 f22 (f23 (f24 (f25 f26 f65) ?v3) (f10 (f11 f12 (f47 f48 ?v3)) (f10 (f14 f15 ?v4) (f10 (f14 f15 (f63 f64 ?v0)) (f10 ?v_1 (f10 (f11 f12 (f47 f48 ?v0)) (f10 ?v_1 (f63 f64 ?v3))))))))) ?v_5) f1) (=> (= (f29 (f30 f31 ?v_4) (f33 f49 ?v_3)) f1) (= (f20 (f21 f22 (f23 (f24 (f25 f26 ?v3) ?v0) ?v_4)) ?v_5) f1)))))))))))
(assert (forall ((?v0 S3) (?v1 S11) (?v2 S7) (?v3 S5) (?v4 S7) (?v5 S5) (?v6 S11)) (let ((?v_0 (f16 f32 ?v1)) (?v_1 (f35 (f36 f37 f38) ?v0)) (?v_3 (f27 f28 ?v0)) (?v_2 (f10 (f11 f12 ?v1) (f16 f17 ?v6)))) (=> (= (f43 (f44 f45 ?v0) f46) f1) (=> (not (= (f29 (f30 f31 ?v_0) (f33 f34 ?v_1)) f1)) (=> (= (f20 (f21 f22 (f23 (f24 (f25 f26 f65) ?v2) (f10 (f11 f12 (f47 f48 ?v2)) (f10 (f14 f15 ?v3) (f10 (f14 f15 (f63 f64 ?v4)) (f10 (f14 f15 ?v_0) ?v5)))))) ?v_3) f1) (=> (= (f29 (f30 f31 ?v_2) (f33 f49 ?v_1)) f1) (= (f20 (f21 f22 (f23 (f24 (f25 f26 ?v4) ?v2) ?v_2)) ?v_3) f1))))))))
(assert (forall ((?v0 S3) (?v1 S11) (?v2 S7) (?v3 S7) (?v4 S11) (?v5 S7) (?v6 S11) (?v7 S7) (?v8 S5)) (let ((?v_1 (f11 f12 ?v1)) (?v_2 (f16 f17 ?v4)) (?v_0 (f27 f28 ?v0))) (=> (= (f43 (f44 f45 ?v0) f46) f1) (=> (= (f57 (f58 f59 ?v1) f66) f1) (=> (= (f20 (f21 f22 (f23 (f24 (f25 f26 ?v2) ?v3) (f10 ?v_1 ?v_2))) ?v_0) f1) (=> (= (f20 (f21 f22 (f23 (f24 (f25 f26 ?v5) ?v3) (f10 (f11 f12 (f47 f48 ?v3)) (f10 (f14 f15 (f16 f17 ?v6)) (f10 (f14 f15 (f63 f64 ?v7)) (f10 (f14 f15 (f16 f32 ?v1)) ?v8)))))) ?v_0) f1) (= (f43 (f44 f45 (f54 (f55 f56 (f23 (f24 (f25 f26 ?v3) ?v7) (f10 ?v_1 (f10 (f14 f15 ?v_2) ?v_2)))) ?v0)) f46) f1))))))))
(assert (forall ((?v0 S3) (?v1 S7) (?v2 S7) (?v3 S11) (?v4 S11) (?v5 S11) (?v6 S5)) (let ((?v_2 (f16 f17 ?v4)) (?v_0 (f27 f28 ?v0)) (?v_1 (f14 f15 (f16 f17 ?v5))) (?v_3 (f16 f32 ?v3))) (=> (= (f43 (f44 f45 ?v0) f46) f1) (=> (= (f20 (f21 f22 (f23 (f24 (f25 f26 ?v1) ?v2) (f10 (f11 f12 ?v3) ?v_2))) ?v_0) f1) (=> (= (f20 (f21 f22 (f23 (f24 (f25 f26 f65) ?v2) (f10 (f11 f12 (f47 f48 ?v2)) (f10 ?v_1 (f10 (f14 f15 (f63 f64 ?v1)) (f10 (f14 f15 ?v_3) ?v6)))))) ?v_0) f1) (= (f43 (f44 f45 (f54 (f55 f56 (f23 (f24 f50 f38) (f10 ?v_1 (f10 (f14 f15 ?v_2) ?v_3)))) ?v0)) f46) f1)))))))
(assert (forall ((?v0 S7) (?v1 S5) (?v2 S7) (?v3 S11) (?v4 S5) (?v5 S3)) (let ((?v_0 (f10 (f11 f12 (f47 f48 ?v0)) (f10 (f14 f15 ?v1) (f10 (f14 f15 (f63 f64 ?v2)) (f10 (f14 f15 (f16 f32 ?v3)) ?v4)))))) (=> (= (f29 (f30 f31 ?v_0) (f33 f49 (f35 (f36 f37 f38) ?v5))) f1) (=> (not (= (f39 (f40 f41 ?v0) f42) f1)) (=> (= (f43 (f44 f45 ?v5) f46) f1) (= (f20 (f21 f22 (f23 (f24 (f25 f26 f65) ?v0) ?v_0)) (f27 f28 ?v5)) f1)))))))
(assert (forall ((?v0 S3) (?v1 S7) (?v2 S7) (?v3 S11) (?v4 S7) (?v5 S11) (?v6 S5)) (let ((?v_1 (f16 f17 ?v3)) (?v_0 (f14 f15 (f63 f64 ?v4))) (?v_2 (f27 f28 ?v0)) (?v_3 (f25 f26 ?v1))) (=> (= (f43 (f44 f45 ?v0) f46) f1) (=> (not (= ?v1 f65)) (=> (= (f20 (f21 f22 (f23 (f24 (f25 f26 ?v2) ?v1) (f10 (f11 f12 (f47 f48 ?v1)) (f10 (f14 f15 ?v_1) (f10 ?v_0 (f10 (f14 f15 (f16 f32 ?v5)) ?v6)))))) ?v_2) f1) (=> (= (f20 (f21 f22 (f23 (f24 ?v_3 f65) (f10 (f14 f15 (f63 f64 ?v1)) (f10 ?v_0 ?v_1)))) ?v_2) f1) (= (f43 (f44 f45 (f54 (f55 f56 (f23 (f24 ?v_3 ?v4) ?v6)) ?v0)) f46) f1))))))))
(assert (forall ((?v0 S7)) (= (f57 (f58 f59 (f47 f48 ?v0)) f66) f1)))
(assert (forall ((?v0 S11) (?v1 S11)) (=> (not (= (= (f57 (f58 f59 ?v0) f66) f1) (= (f57 (f58 f59 ?v1) f66) f1))) (not (= ?v0 ?v1)))))
(assert (not (= f38 f65)))
(assert (not (= f65 f38)))
(assert (not (= (f39 (f40 f41 f65) f42) f1)))
(assert (forall ((?v0 S11) (?v1 S5) (?v2 S23)) (let ((?v_0 (f33 f34 ?v2))) (=> (= (f29 (f30 f31 (f10 (f11 f12 ?v0) ?v1)) ?v_0) f1) (=> (= (f57 (f58 f59 ?v0) f66) f1) (=> (= (f29 (f30 f31 (f16 f32 ?v0)) ?v_0) f1) (= (f29 (f30 f31 ?v1) ?v_0) f1)))))))
(assert (forall ((?v0 S7) (?v1 S5) (?v2 S5) (?v3 S5) (?v4 S5) (?v5 S3)) (=> (= (f20 (f21 f22 (f23 (f24 (f25 f26 f65) ?v0) (f10 (f11 f12 (f47 f48 ?v0)) (f10 (f14 f15 ?v1) (f10 (f14 f15 ?v2) (f10 (f14 f15 ?v3) ?v4)))))) (f27 f28 ?v5)) f1) (= (f29 (f30 f31 ?v3) (f33 f49 (f35 (f36 f37 f38) ?v5))) f1))))
(assert (forall ((?v0 S7) (?v1 S5) (?v2 S7) (?v3 S11) (?v4 S5) (?v5 S3) (?v6 S7) (?v7 S5) (?v8 S7) (?v9 S5)) (let ((?v_0 (f25 f26 f65)) (?v_1 (f14 f15 (f16 f32 ?v3))) (?v_2 (f27 f28 ?v5))) (=> (= (f20 (f21 f22 (f23 (f24 ?v_0 ?v0) (f10 (f11 f12 (f47 f48 ?v0)) (f10 (f14 f15 ?v1) (f10 (f14 f15 (f63 f64 ?v2)) (f10 ?v_1 ?v4)))))) ?v_2) f1) (=> (= (f20 (f21 f22 (f23 (f24 ?v_0 ?v6) (f10 (f11 f12 (f47 f48 ?v6)) (f10 (f14 f15 ?v7) (f10 (f14 f15 (f63 f64 ?v8)) (f10 ?v_1 ?v9)))))) ?v_2) f1) (=> (= (f43 (f44 f45 ?v5) f46) f1) (and (= ?v0 ?v6) (and (= ?v1 ?v7) (and (= ?v2 ?v8) (= ?v4 ?v9))))))))))
(assert (forall ((?v0 S7) (?v1 S5) (?v2 S7) (?v3 S11) (?v4 S3)) (let ((?v_1 (f16 f32 ?v3))) (let ((?v_0 (f14 f15 ?v_1))) (=> (= (f20 (f21 f22 (f23 (f24 (f25 f26 f65) ?v0) (f10 (f11 f12 (f47 f48 ?v0)) (f10 (f14 f15 ?v1) (f10 (f14 f15 (f63 f64 ?v2)) (f10 ?v_0 (f10 (f11 f12 (f47 f48 ?v2)) (f10 ?v_0 (f63 f64 ?v0))))))))) (f27 f28 ?v4)) f1) (=> (not (= (f39 (f40 f41 ?v0) f42) f1)) (=> (not (= (f39 (f40 f41 ?v2) f42) f1)) (=> (= (f43 (f44 f45 ?v4) f46) f1) (=> (forall ((?v5 S5)) (not (= (f20 (f21 f22 (f23 (f24 f50 f38) (f10 (f14 f15 ?v1) (f10 (f14 f15 ?v5) ?v_1)))) (f27 f28 ?v4)) f1))) (not (= (f29 (f30 f31 ?v_1) (f33 f34 (f35 (f36 f37 f38) ?v4))) f1)))))))))))
(assert (forall ((?v0 S3) (?v1 S11) (?v2 S7) (?v3 S5) (?v4 S7) (?v5 S5) (?v6 S11)) (let ((?v_0 (f16 f32 ?v1)) (?v_1 (f35 (f36 f37 f38) ?v0))) (=> (= (f43 (f44 f45 ?v0) f46) f1) (=> (not (= (f29 (f30 f31 ?v_0) (f33 f34 ?v_1)) f1)) (=> (= (f20 (f21 f22 (f23 (f24 (f25 f26 f65) ?v2) (f10 (f11 f12 (f47 f48 ?v2)) (f10 (f14 f15 ?v3) (f10 (f14 f15 (f63 f64 ?v4)) (f10 (f14 f15 ?v_0) ?v5)))))) (f27 f28 ?v0)) f1) (=> (= (f29 (f30 f31 (f10 (f11 f12 ?v1) (f16 f17 ?v6))) (f33 f49 ?v_1)) f1) (exists ((?v7 S7)) (= (f20 (f21 f22 (f23 (f24 (f25 f26 ?v7) ?v4) ?v5)) (f27 f28 ?v0)) f1)))))))))
(assert (forall ((?v0 S7) (?v1 S11) (?v2 S5) (?v3 S7) (?v4 S11) (?v5 S5) (?v6 S3)) (let ((?v_0 (f16 f32 ?v4))) (=> (= (f20 (f21 f22 (f23 (f24 (f25 f26 f65) ?v0) (f10 (f11 f12 ?v1) (f10 (f14 f15 ?v2) (f10 (f14 f15 (f63 f64 ?v3)) (f10 (f14 f15 ?v_0) ?v5)))))) (f27 f28 ?v6)) f1) (=> (forall ((?v7 S5)) (not (= (f20 (f21 f22 (f23 (f24 f50 f38) (f10 (f14 f15 ?v2) (f10 (f14 f15 ?v7) ?v_0)))) (f27 f28 ?v6)) f1))) (=> (not (= (f39 (f40 f41 ?v0) f42) f1)) (=> (not (= (f39 (f40 f41 ?v3) f42) f1)) (=> (= (f43 (f44 f45 ?v6) f46) f1) (not (= (f29 (f30 f31 ?v_0) (f33 f34 (f35 (f36 f37 f38) ?v6))) f1))))))))))
(assert (forall ((?v0 S7) (?v1 S11) (?v2 S7) (?v3 S3)) (=> (= (f29 (f30 f31 (f10 (f11 f12 (f47 f48 ?v0)) (f10 (f14 f15 (f16 f32 ?v1)) (f63 f64 ?v2)))) (f33 f49 (f35 (f36 f37 f38) ?v3))) f1) (=> (not (= (f39 (f40 f41 ?v0) f42) f1)) (=> (= (f43 (f44 f45 ?v3) f46) f1) (exists ((?v4 S5)) (let ((?v_0 (f14 f15 (f16 f32 ?v1)))) (= (f20 (f21 f22 (f23 (f24 (f25 f26 f65) ?v2) (f10 (f11 f12 (f47 f48 ?v2)) (f10 (f14 f15 ?v4) (f10 (f14 f15 (f63 f64 ?v0)) (f10 ?v_0 (f10 (f11 f12 (f47 f48 ?v0)) (f10 ?v_0 (f63 f64 ?v2))))))))) (f27 f28 ?v3)) f1))))))))
(assert (forall ((?v0 S3) (?v1 S7) (?v2 S7) (?v3 S11) (?v4 S11) (?v5 S11) (?v6 S5)) (let ((?v_2 (f16 f17 ?v4)) (?v_0 (f27 f28 ?v0)) (?v_1 (f14 f15 (f16 f17 ?v5))) (?v_3 (f16 f32 ?v3))) (=> (= (f3 f67 ?v0) f1) (=> (= (f20 (f21 f22 (f23 (f24 (f25 f26 ?v1) ?v2) (f10 (f11 f12 ?v3) ?v_2))) ?v_0) f1) (=> (= (f20 (f21 f22 (f23 (f24 (f25 f26 f65) ?v2) (f10 (f11 f12 (f47 f48 ?v2)) (f10 ?v_1 (f10 (f14 f15 (f63 f64 ?v1)) (f10 (f14 f15 ?v_3) ?v6)))))) ?v_0) f1) (= (f3 f67 (f54 (f55 f56 (f23 (f24 f50 f38) (f10 ?v_1 (f10 (f14 f15 ?v_2) ?v_3)))) ?v0)) f1)))))))
(assert (forall ((?v0 S3)) (= (= (f3 f67 ?v0) f1) (= (f43 (f44 f45 ?v0) f46) f1))))
(assert (forall ((?v0 S3) (?v1 S7) (?v2 S7) (?v3 S11) (?v4 S7) (?v5 S11) (?v6 S5)) (let ((?v_1 (f16 f17 ?v3)) (?v_0 (f14 f15 (f63 f64 ?v4))) (?v_2 (f27 f28 ?v0)) (?v_3 (f25 f26 ?v1))) (=> (= (f3 f67 ?v0) f1) (=> (not (= ?v1 f65)) (=> (= (f20 (f21 f22 (f23 (f24 (f25 f26 ?v2) ?v1) (f10 (f11 f12 (f47 f48 ?v1)) (f10 (f14 f15 ?v_1) (f10 ?v_0 (f10 (f14 f15 (f16 f32 ?v5)) ?v6)))))) ?v_2) f1) (=> (= (f20 (f21 f22 (f23 (f24 ?v_3 f65) (f10 (f14 f15 (f63 f64 ?v1)) (f10 ?v_0 ?v_1)))) ?v_2) f1) (= (f3 f67 (f54 (f55 f56 (f23 (f24 ?v_3 ?v4) ?v6)) ?v0)) f1))))))))
(assert (forall ((?v0 S3) (?v1 S11) (?v2 S7) (?v3 S7) (?v4 S11) (?v5 S7) (?v6 S11) (?v7 S7) (?v8 S5)) (let ((?v_1 (f11 f12 ?v1)) (?v_2 (f16 f17 ?v4)) (?v_0 (f27 f28 ?v0))) (=> (= (f3 f67 ?v0) f1) (=> (= (f57 (f58 f59 ?v1) f66) f1) (=> (= (f20 (f21 f22 (f23 (f24 (f25 f26 ?v2) ?v3) (f10 ?v_1 ?v_2))) ?v_0) f1) (=> (= (f20 (f21 f22 (f23 (f24 (f25 f26 ?v5) ?v3) (f10 (f11 f12 (f47 f48 ?v3)) (f10 (f14 f15 (f16 f17 ?v6)) (f10 (f14 f15 (f63 f64 ?v7)) (f10 (f14 f15 (f16 f32 ?v1)) ?v8)))))) ?v_0) f1) (= (f3 f67 (f54 (f55 f56 (f23 (f24 (f25 f26 ?v3) ?v7) (f10 ?v_1 (f10 (f14 f15 ?v_2) ?v_2)))) ?v0)) f1))))))))
(assert (forall ((?v0 S3) (?v1 S11) (?v2 S7) (?v3 S7) (?v4 S7) (?v5 S11)) (let ((?v_2 (f16 f32 ?v1)) (?v_4 (f63 f64 ?v3)) (?v_1 (f14 f15 (f63 f64 ?v4))) (?v_0 (f16 f17 ?v5))) (let ((?v_3 (f14 f15 ?v_2))) (=> (= (f3 f67 ?v0) f1) (=> (not (= (f29 (f30 f31 ?v_2) (f35 f68 ?v0)) f1)) (=> (= (f57 (f58 f59 ?v1) f66) f1) (=> (= (f20 (f21 f22 (f23 (f24 (f25 f26 ?v2) f65) (f10 (f14 f15 ?v_4) (f10 ?v_1 ?v_0)))) (f27 f28 ?v0)) f1) (= (f3 f67 (f54 (f55 f56 (f23 (f24 (f25 f26 f65) ?v3) (f10 (f11 f12 (f47 f48 ?v3)) (f10 (f14 f15 ?v_0) (f10 ?v_1 (f10 ?v_3 (f10 (f11 f12 (f47 f48 ?v4)) (f10 ?v_3 ?v_4)))))))) ?v0)) f1)))))))))
(assert (forall ((?v0 S3) (?v1 S11) (?v2 S7) (?v3 S7) (?v4 S7) (?v5 S11)) (let ((?v_2 (f16 f32 ?v1)) (?v_4 (f63 f64 ?v3)) (?v_1 (f14 f15 (f63 f64 ?v4))) (?v_0 (f16 f17 ?v5))) (let ((?v_3 (f14 f15 ?v_2))) (=> (= (f43 (f44 f45 ?v0) f46) f1) (=> (not (= (f29 (f30 f31 ?v_2) (f35 f68 ?v0)) f1)) (=> (= (f57 (f58 f59 ?v1) f66) f1) (=> (= (f20 (f21 f22 (f23 (f24 (f25 f26 ?v2) f65) (f10 (f14 f15 ?v_4) (f10 ?v_1 ?v_0)))) (f27 f28 ?v0)) f1) (= (f43 (f44 f45 (f54 (f55 f56 (f23 (f24 (f25 f26 f65) ?v3) (f10 (f11 f12 (f47 f48 ?v3)) (f10 (f14 f15 ?v_0) (f10 ?v_1 (f10 ?v_3 (f10 (f11 f12 (f47 f48 ?v4)) (f10 ?v_3 ?v_4)))))))) ?v0)) f46) f1)))))))))
(assert (forall ((?v0 S3) (?v1 S11) (?v2 S11) (?v3 S7) (?v4 S7) (?v5 S7)) (let ((?v_0 (f16 f17 ?v1))) (=> (= (f3 f67 ?v0) f1) (=> (not (= (f29 (f30 f31 ?v_0) (f35 f68 ?v0)) f1)) (=> (= (f57 (f58 f59 ?v2) f66) f1) (=> (= (f20 (f21 f22 (f23 (f24 (f25 f26 ?v3) ?v4) (f10 (f11 f12 (f47 f48 ?v4)) (f10 (f14 f15 (f16 f32 ?v2)) (f63 f64 ?v5))))) (f27 f28 ?v0)) f1) (= (f3 f67 (f54 (f55 f56 (f23 (f24 (f25 f26 ?v4) ?v5) (f10 (f11 f12 ?v2) ?v_0))) ?v0)) f1))))))))
(assert (forall ((?v0 S3) (?v1 S11) (?v2 S11) (?v3 S7) (?v4 S7) (?v5 S7)) (let ((?v_0 (f16 f17 ?v1))) (=> (= (f43 (f44 f45 ?v0) f46) f1) (=> (not (= (f29 (f30 f31 ?v_0) (f35 f68 ?v0)) f1)) (=> (= (f57 (f58 f59 ?v2) f66) f1) (=> (= (f20 (f21 f22 (f23 (f24 (f25 f26 ?v3) ?v4) (f10 (f11 f12 (f47 f48 ?v4)) (f10 (f14 f15 (f16 f32 ?v2)) (f63 f64 ?v5))))) (f27 f28 ?v0)) f1) (= (f43 (f44 f45 (f54 (f55 f56 (f23 (f24 (f25 f26 ?v4) ?v5) (f10 (f11 f12 ?v2) ?v_0))) ?v0)) f46) f1))))))))
(assert (forall ((?v0 S5) (?v1 S5) (?v2 S3)) (let ((?v_0 (f35 f68 ?v2))) (=> (= (f29 (f30 f31 (f10 (f14 f15 ?v0) ?v1)) ?v_0) f1) (=> (=> (= (f29 (f30 f31 ?v0) ?v_0) f1) (=> (= (f29 (f30 f31 ?v1) ?v_0) f1) false)) false)))))
(assert (forall ((?v0 S7) (?v1 S3)) (= (f29 (f30 f31 (f16 f32 (f47 f48 ?v0))) (f35 f68 ?v1)) f1)))
(assert (forall ((?v0 S5) (?v1 S3)) (let ((?v_0 (f30 f31 ?v0))) (=> (= (f29 ?v_0 (f33 f49 (f35 (f36 f37 f38) ?v1))) f1) (= (f29 ?v_0 (f35 f68 ?v1)) f1)))))
(check-sat)
(exit)
